data;
set K:= K1 K2 K3 K4 K5 K6 K7 K8 K9 K10 K11 K12 K13 K14 K15 ;

set F:= F1 F2 F3 ;

set Q:= Q1 Q2 ;

param T:= 45;
param V: 
	K1  K2  K3  K4  K5  K6  K7  K8  K9  K10 K11 K12 K13 K14 K15 :=
Q1	1   1   1   1   1   1   1   1   1   0   0   0   0   0   0   
Q2	0   0   0   0   0   0   0   0   0   1   1   1   1   1   1   
; # if resorce k is of type q

param TF:= 
K1 6
K2 6
K3 6
K4 6
K5 6
K6 6
K7 6
K8 6
K9 6
K10 12
K11 12
K12 12
K13 12
K14 12
K15 12
; # number of continuous time slots resource can fly

param TR:= 
K1 2
K2 2
K3 2
K4 2
K5 2
K6 2
K7 2
K8 2
K9 2
K10 4
K11 4
K12 4
K13 4
K14 4
K15 4
; #  number of continuous time slots resource k needs to rest between flights

param P:= 
K1 36
K2 36
K3 36
K4 36
K5 36
K6 36
K7 36
K8 36
K9 36
K10 36
K11 36
K12 36
K13 36
K14 36
K15 36
; #  number of continuous time slots a pilot can be present including rest times for resource k 

param N:= 
K1 4
K2 4
K3 4
K4 4
K5 4
K6 4
K7 4
K8 4
K9 4
K10 2
K11 1
K12 2
K13 1
K14 2
K15 2
; # max number of flights resource k can fly in the total time period

param A: 
	K1  K2  K3  K4  K5  K6  K7  K8  K9  K10 K11 K12 K13 K14 K15 :=
1	1   1   1   1   1   1   1   1   1   1   0   1   0   1   1   
2	1   1   1   1   1   1   1   1   1   1   0   1   0   1   1   
3	1   1   1   1   1   1   1   1   1   1   0   1   0   1   1   
4	1   1   1   1   1   1   1   1   1   1   0   1   0   1   1   
5	1   1   1   1   1   1   1   1   1   1   0   1   0   1   1   
6	1   1   1   1   1   1   1   1   1   1   0   1   0   1   1   
7	1   1   1   1   1   1   1   1   1   1   0   1   0   1   1   
8	1   1   1   1   1   1   1   1   1   1   0   1   0   1   1   
9	1   1   1   1   1   1   1   1   1   1   0   1   0   1   1   
10	1   1   1   1   1   1   1   1   1   1   0   1   0   1   1   
11	1   1   1   1   1   1   1   1   1   1   0   1   0   1   1   
12	1   1   1   1   1   1   1   1   1   1   0   1   0   1   1   
13	1   1   1   1   1   1   1   1   1   1   0   1   0   1   1   
14	1   1   1   1   1   1   1   1   1   1   0   1   0   1   1   
15	1   1   1   1   1   1   1   1   1   1   0   1   0   1   1   
16	1   1   1   1   1   1   1   1   1   1   0   1   0   1   1   
17	1   1   1   1   1   1   1   1   1   1   0   1   0   1   1   
18	1   1   1   1   1   1   1   1   1   1   1   1   0   1   1   
19	1   1   1   1   1   1   1   1   1   1   1   1   1   1   1   
20	1   1   1   1   1   1   1   1   1   1   1   1   1   1   1   
21	1   1   1   1   1   1   1   1   1   1   1   1   1   1   1   
22	1   1   1   1   1   1   1   1   1   1   1   1   1   1   1   
23	1   1   1   1   1   1   1   1   1   1   1   1   1   1   1   
24	1   1   1   1   1   1   1   1   1   1   1   1   1   1   1   
25	1   1   1   1   1   1   1   1   1   1   1   1   1   1   1   
26	1   1   1   1   1   1   1   1   1   1   1   1   1   1   1   
27	1   1   1   1   1   1   1   1   1   1   1   1   1   1   1   
28	1   1   1   1   1   1   1   1   1   1   1   1   1   1   1   
29	1   1   1   1   1   1   1   1   1   1   1   1   1   1   1   
30	1   1   1   1   1   1   1   1   1   1   1   1   1   1   1   
31	1   1   1   1   1   1   1   1   1   1   1   1   1   1   1   
32	1   1   1   1   1   1   1   1   1   1   1   1   1   1   1   
33	1   1   1   1   1   1   1   1   1   1   1   1   1   1   1   
34	1   1   1   1   1   1   1   1   1   1   1   1   1   1   1   
35	1   1   1   1   1   1   1   1   1   1   1   1   1   1   1   
36	1   1   1   1   1   1   1   1   1   1   1   1   1   1   1   
37	1   1   1   1   1   1   1   1   1   1   1   1   1   1   1   
38	1   1   1   1   1   1   1   1   1   1   1   1   1   1   1   
39	1   1   1   1   1   1   1   1   1   1   1   1   1   1   1   
40	1   1   1   1   1   1   1   1   1   1   1   1   1   1   1   
41	1   1   1   1   1   1   1   1   1   1   1   1   1   1   1   
42	1   1   1   1   1   1   1   1   1   1   1   1   1   1   1   
43	1   1   1   1   1   1   1   1   1   1   1   1   1   1   1   
44	1   1   1   1   1   1   1   1   1   1   1   1   1   1   1   
45	1   1   1   1   1   1   1   1   1   1   1   1   1   1   1   
; # availability of resorce k in time slot t

param B: 
	F1  F2  F3  :=
Q1	0   0   0   
Q2	0   0   0   
; # if front f requires resources of type q

param U: 
	F1  F2  F3  :=
K1	0   0   0   
K2	0   0   0   
K3	0   0   0   
K4	0   0   0   
K5	0   0   0   
K6	0   0   0   
K7	0   0   0   
K8	0   0   0   
K9	0   0   0   
K10	0   0   0   
K11	1   1   1   
K12	2   2   2   
K13	1   1   1   
K14	0   0   0   
K15	2   2   2   
; # transit time of resource

param C:= 
K1 900
K2 900
K3 900
K4 900
K5 900
K6 1500
K7 1500
K8 4500
K9 4500
K10 5500
K11 5500
K12 5500
K13 5500
K14 5500
K15 5500
; #  water capacity of resource k

param S:= 
F1 10
F2 10
F3 9
; # max number of resources that can fly at front f in the same time slot

param D:= 

[*,*,F1 ]:  K1    K2    K3    K4    K5    K6    K7    K8    K9    K10   K11   K12   K13   K14   K15   :=
1           1.59  1.59  1.59  1.59  1.59  1.59  1.59  1.26  1.26  0.95  0.95  0.95  0.95  0.95  0.95  
2           1.59  1.59  1.59  1.59  1.59  1.59  1.59  1.26  1.26  0.95  0.95  0.95  0.95  0.95  0.95  
3           1.59  1.59  1.59  1.59  1.59  1.59  1.59  1.26  1.26  0.95  0.95  0.95  0.95  0.95  0.95  
4           1.59  1.59  1.59  1.59  1.59  1.59  1.59  1.26  1.26  0.95  0.95  0.95  0.95  0.95  0.95  
5           1.59  1.59  1.59  1.59  1.59  1.59  1.59  1.26  1.26  0.95  0.95  0.95  0.95  0.95  0.95  
6           1.59  1.59  1.59  1.59  1.59  1.59  1.59  1.26  1.26  0.95  0.95  0.95  0.95  0.95  0.95  
7           1.59  1.59  1.59  1.59  1.59  1.59  1.59  1.26  1.26  0.95  0.95  0.95  0.95  0.95  0.95  
8           1.59  1.59  1.59  1.59  1.59  1.59  1.59  1.26  1.26  0.95  0.95  0.95  0.95  0.95  0.95  
9           1.59  1.59  1.59  1.59  1.59  1.59  1.59  1.26  1.26  0.95  0.95  0.95  0.95  0.95  0.95  
10          1.59  1.59  1.59  1.59  1.59  1.59  1.59  1.26  1.26  0.95  0.95  0.95  0.95  0.95  0.95  
11          1.59  1.59  1.59  1.59  1.59  1.59  1.59  1.26  1.26  0.95  0.95  0.95  0.95  0.95  0.95  
12          1.59  1.59  1.59  1.59  1.59  1.59  1.59  1.26  1.26  0.95  0.95  0.95  0.95  0.95  0.95  
13          1.59  1.59  1.59  1.59  1.59  1.59  1.59  1.26  1.26  0.95  0.95  0.95  0.95  0.95  0.95  
14          1.59  1.59  1.59  1.59  1.59  1.59  1.59  1.26  1.26  0.95  0.95  0.95  0.95  0.95  0.95  
15          1.59  1.59  1.59  1.59  1.59  1.59  1.59  1.26  1.26  0.95  0.95  0.95  0.95  0.95  0.95  
16          1.59  1.59  1.59  1.59  1.59  1.59  1.59  1.26  1.26  0.95  0.95  0.95  0.95  0.95  0.95  
17          1.59  1.59  1.59  1.59  1.59  1.59  1.59  1.26  1.26  0.95  0.95  0.95  0.95  0.95  0.95  
18          1.59  1.59  1.59  1.59  1.59  1.59  1.59  1.26  1.26  0.95  0.95  0.95  0.95  0.95  0.95  
19          1.59  1.59  1.59  1.59  1.59  1.59  1.59  1.26  1.26  0.95  0.95  0.95  0.95  0.95  0.95  
20          1.59  1.59  1.59  1.59  1.59  1.59  1.59  1.26  1.26  0.95  0.95  0.95  0.95  0.95  0.95  
21          1.59  1.59  1.59  1.59  1.59  1.59  1.59  1.26  1.26  0.95  0.95  0.95  0.95  0.95  0.95  
22          1.59  1.59  1.59  1.59  1.59  1.59  1.59  1.26  1.26  0.95  0.95  0.95  0.95  0.95  0.95  
23          1.59  1.59  1.59  1.59  1.59  1.59  1.59  1.26  1.26  0.95  0.95  0.95  0.95  0.95  0.95  
24          1.59  1.59  1.59  1.59  1.59  1.59  1.59  1.26  1.26  0.95  0.95  0.95  0.95  0.95  0.95  
25          1.51  1.51  1.51  1.51  1.51  1.51  1.51  1.20  1.20  0.90  0.90  0.90  0.90  0.90  0.90  
26          1.51  1.51  1.51  1.51  1.51  1.51  1.51  1.20  1.20  0.90  0.90  0.90  0.90  0.90  0.90  
27          1.51  1.51  1.51  1.51  1.51  1.51  1.51  1.20  1.20  0.90  0.90  0.90  0.90  0.90  0.90  
28          1.51  1.51  1.51  1.51  1.51  1.51  1.51  1.20  1.20  0.90  0.90  0.90  0.90  0.90  0.90  
29          1.51  1.51  1.51  1.51  1.51  1.51  1.51  1.20  1.20  0.90  0.90  0.90  0.90  0.90  0.90  
30          1.51  1.51  1.51  1.51  1.51  1.51  1.51  1.20  1.20  0.90  0.90  0.90  0.90  0.90  0.90  
31          1.51  1.51  1.51  1.51  1.51  1.51  1.51  1.20  1.20  0.90  0.90  0.90  0.90  0.90  0.90  
32          1.51  1.51  1.51  1.51  1.51  1.51  1.51  1.20  1.20  0.90  0.90  0.90  0.90  0.90  0.90  
33          1.51  1.51  1.51  1.51  1.51  1.51  1.51  1.20  1.20  0.90  0.90  0.90  0.90  0.90  0.90  
34          1.59  1.59  1.59  1.59  1.59  1.59  1.59  1.26  1.26  0.95  0.95  0.95  0.95  0.95  0.95  
35          1.59  1.59  1.59  1.59  1.59  1.59  1.59  1.26  1.26  0.95  0.95  0.95  0.95  0.95  0.95  
36          1.59  1.59  1.59  1.59  1.59  1.59  1.59  1.26  1.26  0.95  0.95  0.95  0.95  0.95  0.95  
37          1.59  1.59  1.59  1.59  1.59  1.59  1.59  1.26  1.26  0.95  0.95  0.95  0.95  0.95  0.95  
38          1.59  1.59  1.59  1.59  1.59  1.59  1.59  1.26  1.26  0.95  0.95  0.95  0.95  0.95  0.95  
39          1.59  1.59  1.59  1.59  1.59  1.59  1.59  1.26  1.26  0.95  0.95  0.95  0.95  0.95  0.95  
40          1.59  1.59  1.59  1.59  1.59  1.59  1.59  1.26  1.26  0.95  0.95  0.95  0.95  0.95  0.95  
41          1.59  1.59  1.59  1.59  1.59  1.59  1.59  1.26  1.26  0.95  0.95  0.95  0.95  0.95  0.95  
42          1.59  1.59  1.59  1.59  1.59  1.59  1.59  1.26  1.26  0.95  0.95  0.95  0.95  0.95  0.95  
43          1.59  1.59  1.59  1.59  1.59  1.59  1.59  1.26  1.26  0.95  0.95  0.95  0.95  0.95  0.95  
44          1.59  1.59  1.59  1.59  1.59  1.59  1.59  1.26  1.26  0.95  0.95  0.95  0.95  0.95  0.95  
45          1.59  1.59  1.59  1.59  1.59  1.59  1.59  1.26  1.26  0.95  0.95  0.95  0.95  0.95  0.95  

[*,*,F2 ]:  K1    K2    K3    K4    K5    K6    K7    K8    K9    K10   K11   K12   K13   K14   K15   :=
1           1.37  1.37  1.37  1.37  1.37  1.37  1.37  1.09  1.09  0.82  0.82  0.82  0.82  0.82  0.82  
2           1.37  1.37  1.37  1.37  1.37  1.37  1.37  1.09  1.09  0.82  0.82  0.82  0.82  0.82  0.82  
3           1.37  1.37  1.37  1.37  1.37  1.37  1.37  1.09  1.09  0.82  0.82  0.82  0.82  0.82  0.82  
4           1.37  1.37  1.37  1.37  1.37  1.37  1.37  1.09  1.09  0.82  0.82  0.82  0.82  0.82  0.82  
5           1.37  1.37  1.37  1.37  1.37  1.37  1.37  1.09  1.09  0.82  0.82  0.82  0.82  0.82  0.82  
6           1.37  1.37  1.37  1.37  1.37  1.37  1.37  1.09  1.09  0.82  0.82  0.82  0.82  0.82  0.82  
7           1.37  1.37  1.37  1.37  1.37  1.37  1.37  1.09  1.09  0.82  0.82  0.82  0.82  0.82  0.82  
8           1.37  1.37  1.37  1.37  1.37  1.37  1.37  1.09  1.09  0.82  0.82  0.82  0.82  0.82  0.82  
9           1.37  1.37  1.37  1.37  1.37  1.37  1.37  1.09  1.09  0.82  0.82  0.82  0.82  0.82  0.82  
10          1.37  1.37  1.37  1.37  1.37  1.37  1.37  1.09  1.09  0.82  0.82  0.82  0.82  0.82  0.82  
11          1.37  1.37  1.37  1.37  1.37  1.37  1.37  1.09  1.09  0.82  0.82  0.82  0.82  0.82  0.82  
12          1.37  1.37  1.37  1.37  1.37  1.37  1.37  1.09  1.09  0.82  0.82  0.82  0.82  0.82  0.82  
13          1.37  1.37  1.37  1.37  1.37  1.37  1.37  1.09  1.09  0.82  0.82  0.82  0.82  0.82  0.82  
14          1.37  1.37  1.37  1.37  1.37  1.37  1.37  1.09  1.09  0.82  0.82  0.82  0.82  0.82  0.82  
15          1.37  1.37  1.37  1.37  1.37  1.37  1.37  1.09  1.09  0.82  0.82  0.82  0.82  0.82  0.82  
16          1.37  1.37  1.37  1.37  1.37  1.37  1.37  1.09  1.09  0.82  0.82  0.82  0.82  0.82  0.82  
17          1.37  1.37  1.37  1.37  1.37  1.37  1.37  1.09  1.09  0.82  0.82  0.82  0.82  0.82  0.82  
18          1.37  1.37  1.37  1.37  1.37  1.37  1.37  1.09  1.09  0.82  0.82  0.82  0.82  0.82  0.82  
19          1.37  1.37  1.37  1.37  1.37  1.37  1.37  1.09  1.09  0.82  0.82  0.82  0.82  0.82  0.82  
20          1.37  1.37  1.37  1.37  1.37  1.37  1.37  1.09  1.09  0.82  0.82  0.82  0.82  0.82  0.82  
21          1.37  1.37  1.37  1.37  1.37  1.37  1.37  1.09  1.09  0.82  0.82  0.82  0.82  0.82  0.82  
22          1.37  1.37  1.37  1.37  1.37  1.37  1.37  1.09  1.09  0.82  0.82  0.82  0.82  0.82  0.82  
23          1.37  1.37  1.37  1.37  1.37  1.37  1.37  1.09  1.09  0.82  0.82  0.82  0.82  0.82  0.82  
24          1.37  1.37  1.37  1.37  1.37  1.37  1.37  1.09  1.09  0.82  0.82  0.82  0.82  0.82  0.82  
25          1.30  1.30  1.30  1.30  1.30  1.30  1.30  1.04  1.04  0.78  0.78  0.78  0.78  0.78  0.78  
26          1.30  1.30  1.30  1.30  1.30  1.30  1.30  1.04  1.04  0.78  0.78  0.78  0.78  0.78  0.78  
27          1.30  1.30  1.30  1.30  1.30  1.30  1.30  1.04  1.04  0.78  0.78  0.78  0.78  0.78  0.78  
28          1.30  1.30  1.30  1.30  1.30  1.30  1.30  1.04  1.04  0.78  0.78  0.78  0.78  0.78  0.78  
29          1.30  1.30  1.30  1.30  1.30  1.30  1.30  1.04  1.04  0.78  0.78  0.78  0.78  0.78  0.78  
30          1.30  1.30  1.30  1.30  1.30  1.30  1.30  1.04  1.04  0.78  0.78  0.78  0.78  0.78  0.78  
31          1.30  1.30  1.30  1.30  1.30  1.30  1.30  1.04  1.04  0.78  0.78  0.78  0.78  0.78  0.78  
32          1.30  1.30  1.30  1.30  1.30  1.30  1.30  1.04  1.04  0.78  0.78  0.78  0.78  0.78  0.78  
33          1.30  1.30  1.30  1.30  1.30  1.30  1.30  1.04  1.04  0.78  0.78  0.78  0.78  0.78  0.78  
34          1.37  1.37  1.37  1.37  1.37  1.37  1.37  1.09  1.09  0.82  0.82  0.82  0.82  0.82  0.82  
35          1.37  1.37  1.37  1.37  1.37  1.37  1.37  1.09  1.09  0.82  0.82  0.82  0.82  0.82  0.82  
36          1.37  1.37  1.37  1.37  1.37  1.37  1.37  1.09  1.09  0.82  0.82  0.82  0.82  0.82  0.82  
37          1.37  1.37  1.37  1.37  1.37  1.37  1.37  1.09  1.09  0.82  0.82  0.82  0.82  0.82  0.82  
38          1.37  1.37  1.37  1.37  1.37  1.37  1.37  1.09  1.09  0.82  0.82  0.82  0.82  0.82  0.82  
39          1.37  1.37  1.37  1.37  1.37  1.37  1.37  1.09  1.09  0.82  0.82  0.82  0.82  0.82  0.82  
40          1.37  1.37  1.37  1.37  1.37  1.37  1.37  1.09  1.09  0.82  0.82  0.82  0.82  0.82  0.82  
41          1.37  1.37  1.37  1.37  1.37  1.37  1.37  1.09  1.09  0.82  0.82  0.82  0.82  0.82  0.82  
42          1.37  1.37  1.37  1.37  1.37  1.37  1.37  1.09  1.09  0.82  0.82  0.82  0.82  0.82  0.82  
43          1.37  1.37  1.37  1.37  1.37  1.37  1.37  1.09  1.09  0.82  0.82  0.82  0.82  0.82  0.82  
44          1.37  1.37  1.37  1.37  1.37  1.37  1.37  1.09  1.09  0.82  0.82  0.82  0.82  0.82  0.82  
45          1.37  1.37  1.37  1.37  1.37  1.37  1.37  1.09  1.09  0.82  0.82  0.82  0.82  0.82  0.82  

[*,*,F3 ]:  K1    K2    K3    K4    K5    K6    K7    K8    K9    K10   K11   K12   K13   K14   K15   :=
1           1.37  1.37  1.37  1.37  1.37  1.37  1.37  1.09  1.09  0.82  0.82  0.82  0.82  0.82  0.82  
2           1.37  1.37  1.37  1.37  1.37  1.37  1.37  1.09  1.09  0.82  0.82  0.82  0.82  0.82  0.82  
3           1.37  1.37  1.37  1.37  1.37  1.37  1.37  1.09  1.09  0.82  0.82  0.82  0.82  0.82  0.82  
4           1.37  1.37  1.37  1.37  1.37  1.37  1.37  1.09  1.09  0.82  0.82  0.82  0.82  0.82  0.82  
5           1.37  1.37  1.37  1.37  1.37  1.37  1.37  1.09  1.09  0.82  0.82  0.82  0.82  0.82  0.82  
6           1.37  1.37  1.37  1.37  1.37  1.37  1.37  1.09  1.09  0.82  0.82  0.82  0.82  0.82  0.82  
7           1.37  1.37  1.37  1.37  1.37  1.37  1.37  1.09  1.09  0.82  0.82  0.82  0.82  0.82  0.82  
8           1.37  1.37  1.37  1.37  1.37  1.37  1.37  1.09  1.09  0.82  0.82  0.82  0.82  0.82  0.82  
9           1.37  1.37  1.37  1.37  1.37  1.37  1.37  1.09  1.09  0.82  0.82  0.82  0.82  0.82  0.82  
10          1.37  1.37  1.37  1.37  1.37  1.37  1.37  1.09  1.09  0.82  0.82  0.82  0.82  0.82  0.82  
11          1.37  1.37  1.37  1.37  1.37  1.37  1.37  1.09  1.09  0.82  0.82  0.82  0.82  0.82  0.82  
12          1.37  1.37  1.37  1.37  1.37  1.37  1.37  1.09  1.09  0.82  0.82  0.82  0.82  0.82  0.82  
13          1.37  1.37  1.37  1.37  1.37  1.37  1.37  1.09  1.09  0.82  0.82  0.82  0.82  0.82  0.82  
14          1.37  1.37  1.37  1.37  1.37  1.37  1.37  1.09  1.09  0.82  0.82  0.82  0.82  0.82  0.82  
15          1.37  1.37  1.37  1.37  1.37  1.37  1.37  1.09  1.09  0.82  0.82  0.82  0.82  0.82  0.82  
16          1.37  1.37  1.37  1.37  1.37  1.37  1.37  1.09  1.09  0.82  0.82  0.82  0.82  0.82  0.82  
17          1.37  1.37  1.37  1.37  1.37  1.37  1.37  1.09  1.09  0.82  0.82  0.82  0.82  0.82  0.82  
18          1.37  1.37  1.37  1.37  1.37  1.37  1.37  1.09  1.09  0.82  0.82  0.82  0.82  0.82  0.82  
19          1.37  1.37  1.37  1.37  1.37  1.37  1.37  1.09  1.09  0.82  0.82  0.82  0.82  0.82  0.82  
20          1.37  1.37  1.37  1.37  1.37  1.37  1.37  1.09  1.09  0.82  0.82  0.82  0.82  0.82  0.82  
21          1.37  1.37  1.37  1.37  1.37  1.37  1.37  1.09  1.09  0.82  0.82  0.82  0.82  0.82  0.82  
22          1.37  1.37  1.37  1.37  1.37  1.37  1.37  1.09  1.09  0.82  0.82  0.82  0.82  0.82  0.82  
23          1.37  1.37  1.37  1.37  1.37  1.37  1.37  1.09  1.09  0.82  0.82  0.82  0.82  0.82  0.82  
24          1.37  1.37  1.37  1.37  1.37  1.37  1.37  1.09  1.09  0.82  0.82  0.82  0.82  0.82  0.82  
25          1.30  1.30  1.30  1.30  1.30  1.30  1.30  1.04  1.04  0.78  0.78  0.78  0.78  0.78  0.78  
26          1.30  1.30  1.30  1.30  1.30  1.30  1.30  1.04  1.04  0.78  0.78  0.78  0.78  0.78  0.78  
27          1.30  1.30  1.30  1.30  1.30  1.30  1.30  1.04  1.04  0.78  0.78  0.78  0.78  0.78  0.78  
28          1.30  1.30  1.30  1.30  1.30  1.30  1.30  1.04  1.04  0.78  0.78  0.78  0.78  0.78  0.78  
29          1.30  1.30  1.30  1.30  1.30  1.30  1.30  1.04  1.04  0.78  0.78  0.78  0.78  0.78  0.78  
30          1.30  1.30  1.30  1.30  1.30  1.30  1.30  1.04  1.04  0.78  0.78  0.78  0.78  0.78  0.78  
31          1.30  1.30  1.30  1.30  1.30  1.30  1.30  1.04  1.04  0.78  0.78  0.78  0.78  0.78  0.78  
32          1.30  1.30  1.30  1.30  1.30  1.30  1.30  1.04  1.04  0.78  0.78  0.78  0.78  0.78  0.78  
33          1.30  1.30  1.30  1.30  1.30  1.30  1.30  1.04  1.04  0.78  0.78  0.78  0.78  0.78  0.78  
34          1.37  1.37  1.37  1.37  1.37  1.37  1.37  1.09  1.09  0.82  0.82  0.82  0.82  0.82  0.82  
35          1.37  1.37  1.37  1.37  1.37  1.37  1.37  1.09  1.09  0.82  0.82  0.82  0.82  0.82  0.82  
36          1.37  1.37  1.37  1.37  1.37  1.37  1.37  1.09  1.09  0.82  0.82  0.82  0.82  0.82  0.82  
37          1.37  1.37  1.37  1.37  1.37  1.37  1.37  1.09  1.09  0.82  0.82  0.82  0.82  0.82  0.82  
38          1.37  1.37  1.37  1.37  1.37  1.37  1.37  1.09  1.09  0.82  0.82  0.82  0.82  0.82  0.82  
39          1.37  1.37  1.37  1.37  1.37  1.37  1.37  1.09  1.09  0.82  0.82  0.82  0.82  0.82  0.82  
40          1.37  1.37  1.37  1.37  1.37  1.37  1.37  1.09  1.09  0.82  0.82  0.82  0.82  0.82  0.82  
41          1.37  1.37  1.37  1.37  1.37  1.37  1.37  1.09  1.09  0.82  0.82  0.82  0.82  0.82  0.82  
42          1.37  1.37  1.37  1.37  1.37  1.37  1.37  1.09  1.09  0.82  0.82  0.82  0.82  0.82  0.82  
43          1.37  1.37  1.37  1.37  1.37  1.37  1.37  1.09  1.09  0.82  0.82  0.82  0.82  0.82  0.82  
44          1.37  1.37  1.37  1.37  1.37  1.37  1.37  1.09  1.09  0.82  0.82  0.82  0.82  0.82  0.82  
45          1.37  1.37  1.37  1.37  1.37  1.37  1.37  1.09  1.09  0.82  0.82  0.82  0.82  0.82  0.82  
; # downloads resource k can do at front f in time t if intermediate time slot

param E:= 

[*,*,F1 ]:  K1    K2    K3    K4    K5    K6    K7    K8    K9    K10   K11   K12   K13   K14   K15   :=
1           0.36  0.62  0.60  0.48  0.73  0.22  0.52  0.33  0.00  0.37  0.35  0.20  0.27  0.04  0.09  
2           0.36  0.62  0.60  0.48  0.73  0.22  0.52  0.33  0.00  0.37  0.35  0.20  0.27  0.04  0.09  
3           0.36  0.62  0.60  0.48  0.73  0.22  0.52  0.33  0.00  0.37  0.35  0.20  0.27  0.04  0.09  
4           0.36  0.62  0.60  0.48  0.73  0.22  0.52  0.33  0.00  0.37  0.35  0.20  0.27  0.04  0.09  
5           0.36  0.62  0.60  0.48  0.73  0.22  0.52  0.33  0.00  0.37  0.35  0.20  0.27  0.04  0.09  
6           0.36  0.62  0.60  0.48  0.73  0.22  0.52  0.33  0.00  0.37  0.35  0.20  0.27  0.04  0.09  
7           0.36  0.62  0.60  0.48  0.73  0.22  0.52  0.33  0.00  0.37  0.35  0.20  0.27  0.04  0.09  
8           0.36  0.62  0.60  0.48  0.73  0.22  0.52  0.33  0.00  0.37  0.35  0.20  0.27  0.04  0.09  
9           0.36  0.62  0.60  0.48  0.73  0.22  0.52  0.33  0.00  0.37  0.35  0.20  0.27  0.04  0.09  
10          0.36  0.62  0.60  0.48  0.73  0.22  0.52  0.33  0.00  0.37  0.35  0.20  0.27  0.04  0.09  
11          0.36  0.62  0.60  0.48  0.73  0.22  0.52  0.33  0.00  0.37  0.35  0.20  0.27  0.04  0.09  
12          0.36  0.62  0.60  0.48  0.73  0.22  0.52  0.33  0.00  0.37  0.35  0.20  0.27  0.04  0.09  
13          0.36  0.62  0.60  0.48  0.73  0.22  0.52  0.33  0.00  0.37  0.35  0.20  0.27  0.04  0.09  
14          0.36  0.62  0.60  0.48  0.73  0.22  0.52  0.33  0.00  0.37  0.35  0.20  0.27  0.04  0.09  
15          0.36  0.62  0.60  0.48  0.73  0.22  0.52  0.33  0.00  0.37  0.35  0.20  0.27  0.04  0.09  
16          0.36  0.62  0.60  0.48  0.73  0.22  0.52  0.33  0.00  0.37  0.35  0.20  0.27  0.04  0.09  
17          0.36  0.62  0.60  0.48  0.73  0.22  0.52  0.33  0.00  0.37  0.35  0.20  0.27  0.04  0.09  
18          0.36  0.62  0.60  0.48  0.73  0.22  0.52  0.33  0.00  0.37  0.35  0.20  0.27  0.04  0.09  
19          0.36  0.62  0.60  0.48  0.73  0.22  0.52  0.33  0.00  0.37  0.35  0.20  0.27  0.04  0.09  
20          0.36  0.62  0.60  0.48  0.73  0.22  0.52  0.33  0.00  0.37  0.35  0.20  0.27  0.04  0.09  
21          0.36  0.62  0.60  0.48  0.73  0.22  0.52  0.33  0.00  0.37  0.35  0.20  0.27  0.04  0.09  
22          0.36  0.62  0.60  0.48  0.73  0.22  0.52  0.33  0.00  0.37  0.35  0.20  0.27  0.04  0.09  
23          0.36  0.62  0.60  0.48  0.73  0.22  0.52  0.33  0.00  0.37  0.35  0.20  0.27  0.04  0.09  
24          0.36  0.62  0.60  0.48  0.73  0.22  0.52  0.33  0.00  0.37  0.35  0.20  0.27  0.04  0.09  
25          0.35  0.59  0.57  0.45  0.69  0.21  0.50  0.31  0.00  0.35  0.33  0.19  0.25  0.04  0.08  
26          0.35  0.59  0.57  0.45  0.69  0.21  0.50  0.31  0.00  0.35  0.33  0.19  0.25  0.04  0.08  
27          0.35  0.59  0.57  0.45  0.69  0.21  0.50  0.31  0.00  0.35  0.33  0.19  0.25  0.04  0.08  
28          0.35  0.59  0.57  0.45  0.69  0.21  0.50  0.31  0.00  0.35  0.33  0.19  0.25  0.04  0.08  
29          0.35  0.59  0.57  0.45  0.69  0.21  0.50  0.31  0.00  0.35  0.33  0.19  0.25  0.04  0.08  
30          0.35  0.59  0.57  0.45  0.69  0.21  0.50  0.31  0.00  0.35  0.33  0.19  0.25  0.04  0.08  
31          0.35  0.59  0.57  0.45  0.69  0.21  0.50  0.31  0.00  0.35  0.33  0.19  0.25  0.04  0.08  
32          0.35  0.59  0.57  0.45  0.69  0.21  0.50  0.31  0.00  0.35  0.33  0.19  0.25  0.04  0.08  
33          0.35  0.59  0.57  0.45  0.69  0.21  0.50  0.31  0.00  0.35  0.33  0.19  0.25  0.04  0.08  
34          0.36  0.62  0.60  0.48  0.73  0.22  0.52  0.33  0.00  0.37  0.35  0.20  0.27  0.04  0.09  
35          0.36  0.62  0.60  0.48  0.73  0.22  0.52  0.33  0.00  0.37  0.35  0.20  0.27  0.04  0.09  
36          0.36  0.62  0.60  0.48  0.73  0.22  0.52  0.33  0.00  0.37  0.35  0.20  0.27  0.04  0.09  
37          0.36  0.62  0.60  0.48  0.73  0.22  0.52  0.33  0.00  0.37  0.35  0.20  0.27  0.04  0.09  
38          0.36  0.62  0.60  0.48  0.73  0.22  0.52  0.33  0.00  0.37  0.35  0.20  0.27  0.04  0.09  
39          0.36  0.62  0.60  0.48  0.73  0.22  0.52  0.33  0.00  0.37  0.35  0.20  0.27  0.04  0.09  
40          0.36  0.62  0.60  0.48  0.73  0.22  0.52  0.33  0.00  0.37  0.35  0.20  0.27  0.04  0.09  
41          0.36  0.62  0.60  0.48  0.73  0.22  0.52  0.33  0.00  0.37  0.35  0.20  0.27  0.04  0.09  
42          0.36  0.62  0.60  0.48  0.73  0.22  0.52  0.33  0.00  0.37  0.35  0.20  0.27  0.04  0.09  
43          0.36  0.62  0.60  0.48  0.73  0.22  0.52  0.33  0.00  0.37  0.35  0.20  0.27  0.04  0.09  
44          0.36  0.62  0.60  0.48  0.73  0.22  0.52  0.33  0.00  0.37  0.35  0.20  0.27  0.04  0.09  
45          0.36  0.62  0.60  0.48  0.73  0.22  0.52  0.33  0.00  0.37  0.35  0.20  0.27  0.04  0.09  

[*,*,F2 ]:  K1    K2    K3    K4    K5    K6    K7    K8    K9    K10   K11   K12   K13   K14   K15   :=
1           0.44  0.53  0.42  0.29  0.62  0.12  0.48  0.25  0.07  0.24  0.28  0.19  0.27  0.07  0.03  
2           0.44  0.53  0.42  0.29  0.62  0.12  0.48  0.25  0.07  0.24  0.28  0.19  0.27  0.07  0.03  
3           0.44  0.53  0.42  0.29  0.62  0.12  0.48  0.25  0.07  0.24  0.28  0.19  0.27  0.07  0.03  
4           0.44  0.53  0.42  0.29  0.62  0.12  0.48  0.25  0.07  0.24  0.28  0.19  0.27  0.07  0.03  
5           0.44  0.53  0.42  0.29  0.62  0.12  0.48  0.25  0.07  0.24  0.28  0.19  0.27  0.07  0.03  
6           0.44  0.53  0.42  0.29  0.62  0.12  0.48  0.25  0.07  0.24  0.28  0.19  0.27  0.07  0.03  
7           0.44  0.53  0.42  0.29  0.62  0.12  0.48  0.25  0.07  0.24  0.28  0.19  0.27  0.07  0.03  
8           0.44  0.53  0.42  0.29  0.62  0.12  0.48  0.25  0.07  0.24  0.28  0.19  0.27  0.07  0.03  
9           0.44  0.53  0.42  0.29  0.62  0.12  0.48  0.25  0.07  0.24  0.28  0.19  0.27  0.07  0.03  
10          0.44  0.53  0.42  0.29  0.62  0.12  0.48  0.25  0.07  0.24  0.28  0.19  0.27  0.07  0.03  
11          0.44  0.53  0.42  0.29  0.62  0.12  0.48  0.25  0.07  0.24  0.28  0.19  0.27  0.07  0.03  
12          0.44  0.53  0.42  0.29  0.62  0.12  0.48  0.25  0.07  0.24  0.28  0.19  0.27  0.07  0.03  
13          0.44  0.53  0.42  0.29  0.62  0.12  0.48  0.25  0.07  0.24  0.28  0.19  0.27  0.07  0.03  
14          0.44  0.53  0.42  0.29  0.62  0.12  0.48  0.25  0.07  0.24  0.28  0.19  0.27  0.07  0.03  
15          0.44  0.53  0.42  0.29  0.62  0.12  0.48  0.25  0.07  0.24  0.28  0.19  0.27  0.07  0.03  
16          0.44  0.53  0.42  0.29  0.62  0.12  0.48  0.25  0.07  0.24  0.28  0.19  0.27  0.07  0.03  
17          0.44  0.53  0.42  0.29  0.62  0.12  0.48  0.25  0.07  0.24  0.28  0.19  0.27  0.07  0.03  
18          0.44  0.53  0.42  0.29  0.62  0.12  0.48  0.25  0.07  0.24  0.28  0.19  0.27  0.07  0.03  
19          0.44  0.53  0.42  0.29  0.62  0.12  0.48  0.25  0.07  0.24  0.28  0.19  0.27  0.07  0.03  
20          0.44  0.53  0.42  0.29  0.62  0.12  0.48  0.25  0.07  0.24  0.28  0.19  0.27  0.07  0.03  
21          0.44  0.53  0.42  0.29  0.62  0.12  0.48  0.25  0.07  0.24  0.28  0.19  0.27  0.07  0.03  
22          0.44  0.53  0.42  0.29  0.62  0.12  0.48  0.25  0.07  0.24  0.28  0.19  0.27  0.07  0.03  
23          0.44  0.53  0.42  0.29  0.62  0.12  0.48  0.25  0.07  0.24  0.28  0.19  0.27  0.07  0.03  
24          0.44  0.53  0.42  0.29  0.62  0.12  0.48  0.25  0.07  0.24  0.28  0.19  0.27  0.07  0.03  
25          0.42  0.51  0.40  0.27  0.59  0.12  0.46  0.24  0.06  0.23  0.26  0.18  0.26  0.06  0.03  
26          0.42  0.51  0.40  0.27  0.59  0.12  0.46  0.24  0.06  0.23  0.26  0.18  0.26  0.06  0.03  
27          0.42  0.51  0.40  0.27  0.59  0.12  0.46  0.24  0.06  0.23  0.26  0.18  0.26  0.06  0.03  
28          0.42  0.51  0.40  0.27  0.59  0.12  0.46  0.24  0.06  0.23  0.26  0.18  0.26  0.06  0.03  
29          0.42  0.51  0.40  0.27  0.59  0.12  0.46  0.24  0.06  0.23  0.26  0.18  0.26  0.06  0.03  
30          0.42  0.51  0.40  0.27  0.59  0.12  0.46  0.24  0.06  0.23  0.26  0.18  0.26  0.06  0.03  
31          0.42  0.51  0.40  0.27  0.59  0.12  0.46  0.24  0.06  0.23  0.26  0.18  0.26  0.06  0.03  
32          0.42  0.51  0.40  0.27  0.59  0.12  0.46  0.24  0.06  0.23  0.26  0.18  0.26  0.06  0.03  
33          0.42  0.51  0.40  0.27  0.59  0.12  0.46  0.24  0.06  0.23  0.26  0.18  0.26  0.06  0.03  
34          0.44  0.53  0.42  0.29  0.62  0.12  0.48  0.25  0.07  0.24  0.28  0.19  0.27  0.07  0.03  
35          0.44  0.53  0.42  0.29  0.62  0.12  0.48  0.25  0.07  0.24  0.28  0.19  0.27  0.07  0.03  
36          0.44  0.53  0.42  0.29  0.62  0.12  0.48  0.25  0.07  0.24  0.28  0.19  0.27  0.07  0.03  
37          0.44  0.53  0.42  0.29  0.62  0.12  0.48  0.25  0.07  0.24  0.28  0.19  0.27  0.07  0.03  
38          0.44  0.53  0.42  0.29  0.62  0.12  0.48  0.25  0.07  0.24  0.28  0.19  0.27  0.07  0.03  
39          0.44  0.53  0.42  0.29  0.62  0.12  0.48  0.25  0.07  0.24  0.28  0.19  0.27  0.07  0.03  
40          0.44  0.53  0.42  0.29  0.62  0.12  0.48  0.25  0.07  0.24  0.28  0.19  0.27  0.07  0.03  
41          0.44  0.53  0.42  0.29  0.62  0.12  0.48  0.25  0.07  0.24  0.28  0.19  0.27  0.07  0.03  
42          0.44  0.53  0.42  0.29  0.62  0.12  0.48  0.25  0.07  0.24  0.28  0.19  0.27  0.07  0.03  
43          0.44  0.53  0.42  0.29  0.62  0.12  0.48  0.25  0.07  0.24  0.28  0.19  0.27  0.07  0.03  
44          0.44  0.53  0.42  0.29  0.62  0.12  0.48  0.25  0.07  0.24  0.28  0.19  0.27  0.07  0.03  
45          0.44  0.53  0.42  0.29  0.62  0.12  0.48  0.25  0.07  0.24  0.28  0.19  0.27  0.07  0.03  

[*,*,F3 ]:  K1    K2    K3    K4    K5    K6    K7    K8    K9    K10   K11   K12   K13   K14   K15   :=
1           0.42  0.58  0.44  0.38  0.53  0.18  0.51  0.20  0.01  0.29  0.22  0.21  0.19  0.06  0.03  
2           0.42  0.58  0.44  0.38  0.53  0.18  0.51  0.20  0.01  0.29  0.22  0.21  0.19  0.06  0.03  
3           0.42  0.58  0.44  0.38  0.53  0.18  0.51  0.20  0.01  0.29  0.22  0.21  0.19  0.06  0.03  
4           0.42  0.58  0.44  0.38  0.53  0.18  0.51  0.20  0.01  0.29  0.22  0.21  0.19  0.06  0.03  
5           0.42  0.58  0.44  0.38  0.53  0.18  0.51  0.20  0.01  0.29  0.22  0.21  0.19  0.06  0.03  
6           0.42  0.58  0.44  0.38  0.53  0.18  0.51  0.20  0.01  0.29  0.22  0.21  0.19  0.06  0.03  
7           0.42  0.58  0.44  0.38  0.53  0.18  0.51  0.20  0.01  0.29  0.22  0.21  0.19  0.06  0.03  
8           0.42  0.58  0.44  0.38  0.53  0.18  0.51  0.20  0.01  0.29  0.22  0.21  0.19  0.06  0.03  
9           0.42  0.58  0.44  0.38  0.53  0.18  0.51  0.20  0.01  0.29  0.22  0.21  0.19  0.06  0.03  
10          0.42  0.58  0.44  0.38  0.53  0.18  0.51  0.20  0.01  0.29  0.22  0.21  0.19  0.06  0.03  
11          0.42  0.58  0.44  0.38  0.53  0.18  0.51  0.20  0.01  0.29  0.22  0.21  0.19  0.06  0.03  
12          0.42  0.58  0.44  0.38  0.53  0.18  0.51  0.20  0.01  0.29  0.22  0.21  0.19  0.06  0.03  
13          0.42  0.58  0.44  0.38  0.53  0.18  0.51  0.20  0.01  0.29  0.22  0.21  0.19  0.06  0.03  
14          0.42  0.58  0.44  0.38  0.53  0.18  0.51  0.20  0.01  0.29  0.22  0.21  0.19  0.06  0.03  
15          0.42  0.58  0.44  0.38  0.53  0.18  0.51  0.20  0.01  0.29  0.22  0.21  0.19  0.06  0.03  
16          0.42  0.58  0.44  0.38  0.53  0.18  0.51  0.20  0.01  0.29  0.22  0.21  0.19  0.06  0.03  
17          0.42  0.58  0.44  0.38  0.53  0.18  0.51  0.20  0.01  0.29  0.22  0.21  0.19  0.06  0.03  
18          0.42  0.58  0.44  0.38  0.53  0.18  0.51  0.20  0.01  0.29  0.22  0.21  0.19  0.06  0.03  
19          0.42  0.58  0.44  0.38  0.53  0.18  0.51  0.20  0.01  0.29  0.22  0.21  0.19  0.06  0.03  
20          0.42  0.58  0.44  0.38  0.53  0.18  0.51  0.20  0.01  0.29  0.22  0.21  0.19  0.06  0.03  
21          0.42  0.58  0.44  0.38  0.53  0.18  0.51  0.20  0.01  0.29  0.22  0.21  0.19  0.06  0.03  
22          0.42  0.58  0.44  0.38  0.53  0.18  0.51  0.20  0.01  0.29  0.22  0.21  0.19  0.06  0.03  
23          0.42  0.58  0.44  0.38  0.53  0.18  0.51  0.20  0.01  0.29  0.22  0.21  0.19  0.06  0.03  
24          0.42  0.58  0.44  0.38  0.53  0.18  0.51  0.20  0.01  0.29  0.22  0.21  0.19  0.06  0.03  
25          0.40  0.55  0.42  0.36  0.51  0.17  0.48  0.19  0.01  0.27  0.21  0.20  0.18  0.05  0.03  
26          0.40  0.55  0.42  0.36  0.51  0.17  0.48  0.19  0.01  0.27  0.21  0.20  0.18  0.05  0.03  
27          0.40  0.55  0.42  0.36  0.51  0.17  0.48  0.19  0.01  0.27  0.21  0.20  0.18  0.05  0.03  
28          0.40  0.55  0.42  0.36  0.51  0.17  0.48  0.19  0.01  0.27  0.21  0.20  0.18  0.05  0.03  
29          0.40  0.55  0.42  0.36  0.51  0.17  0.48  0.19  0.01  0.27  0.21  0.20  0.18  0.05  0.03  
30          0.40  0.55  0.42  0.36  0.51  0.17  0.48  0.19  0.01  0.27  0.21  0.20  0.18  0.05  0.03  
31          0.40  0.55  0.42  0.36  0.51  0.17  0.48  0.19  0.01  0.27  0.21  0.20  0.18  0.05  0.03  
32          0.40  0.55  0.42  0.36  0.51  0.17  0.48  0.19  0.01  0.27  0.21  0.20  0.18  0.05  0.03  
33          0.40  0.55  0.42  0.36  0.51  0.17  0.48  0.19  0.01  0.27  0.21  0.20  0.18  0.05  0.03  
34          0.42  0.58  0.44  0.38  0.53  0.18  0.51  0.20  0.01  0.29  0.22  0.21  0.19  0.06  0.03  
35          0.42  0.58  0.44  0.38  0.53  0.18  0.51  0.20  0.01  0.29  0.22  0.21  0.19  0.06  0.03  
36          0.42  0.58  0.44  0.38  0.53  0.18  0.51  0.20  0.01  0.29  0.22  0.21  0.19  0.06  0.03  
37          0.42  0.58  0.44  0.38  0.53  0.18  0.51  0.20  0.01  0.29  0.22  0.21  0.19  0.06  0.03  
38          0.42  0.58  0.44  0.38  0.53  0.18  0.51  0.20  0.01  0.29  0.22  0.21  0.19  0.06  0.03  
39          0.42  0.58  0.44  0.38  0.53  0.18  0.51  0.20  0.01  0.29  0.22  0.21  0.19  0.06  0.03  
40          0.42  0.58  0.44  0.38  0.53  0.18  0.51  0.20  0.01  0.29  0.22  0.21  0.19  0.06  0.03  
41          0.42  0.58  0.44  0.38  0.53  0.18  0.51  0.20  0.01  0.29  0.22  0.21  0.19  0.06  0.03  
42          0.42  0.58  0.44  0.38  0.53  0.18  0.51  0.20  0.01  0.29  0.22  0.21  0.19  0.06  0.03  
43          0.42  0.58  0.44  0.38  0.53  0.18  0.51  0.20  0.01  0.29  0.22  0.21  0.19  0.06  0.03  
44          0.42  0.58  0.44  0.38  0.53  0.18  0.51  0.20  0.01  0.29  0.22  0.21  0.19  0.06  0.03  
45          0.42  0.58  0.44  0.38  0.53  0.18  0.51  0.20  0.01  0.29  0.22  0.21  0.19  0.06  0.03  
; # downloads resource k can do at front f in time t if starting or ending flight

param W: 
	F1        F2        F3        :=
1	658.37    658.37    658.37    
2	2633.49   2633.49   2633.49   
3	2633.49   2633.49   2633.49   
4	2633.49   2633.49   2633.49   
5	2633.49   2633.49   2633.49   
6	2633.49   2633.49   2633.49   
7	2633.49   2633.49   2633.49   
8	2633.49   2633.49   2633.49   
9	2633.49   2633.49   2633.49   
10	2633.49   2633.49   2633.49   
11	2633.49   2633.49   2633.49   
12	2633.49   2633.49   2633.49   
13	2633.49   2633.49   2633.49   
14	2633.49   2633.49   2633.49   
15	2633.49   2633.49   2633.49   
16	2633.49   2633.49   2633.49   
17	2633.49   2633.49   2633.49   
18	2633.49   2633.49   2633.49   
19	2633.49   2633.49   2633.49   
20	2633.49   2633.49   2633.49   
21	2633.49   2633.49   2633.49   
22	2633.49   2633.49   2633.49   
23	2633.49   2633.49   2633.49   
24	2633.49   2633.49   2633.49   
25	2633.49   2633.49   2633.49   
26	2633.49   2633.49   2633.49   
27	2633.49   2633.49   2633.49   
28	2633.49   2633.49   2633.49   
29	2633.49   2633.49   2633.49   
30	2633.49   2633.49   2633.49   
31	2633.49   2633.49   2633.49   
32	2633.49   2633.49   2633.49   
33	2633.49   2633.49   2633.49   
34	2633.49   2633.49   2633.49   
35	2633.49   2633.49   2633.49   
36	2633.49   2633.49   2633.49   
37	2633.49   2633.49   2633.49   
38	2633.49   2633.49   2633.49   
39	2633.49   2633.49   2633.49   
40	2633.49   2633.49   2633.49   
41	2633.49   2633.49   2633.49   
42	2633.49   2633.49   2633.49   
43	2633.49   2633.49   2633.49   
44	2633.49   2633.49   2633.49   
45	658.37    658.37    658.37    
; # water needed at front f in time slot t

param M := 100000000; 

param a1:= 10000000;

param a2:= 100;

param a3:= 0.0001;
